Problem:    
Rows:       105
Columns:    45 (34 integer, 34 binary)
Non-zeros:  302
Status:     INTEGER OPTIMAL
Objective:  value = 38.967384 (MINimum)

   No.   Row name        Activity     Lower bound   Upper bound
------ ------------    ------------- ------------- -------------
     1 r.5                   2038.97             0               
     2 r.6                  -1961.03      -1983.12               
     3 r.7                   38.9674             0               
     4 r.8                   9.04588      -1988.52               
     5 r.9                   38.9674             0               
     6 r.10                  10.1098      -1992.87               
     7 r.11                  2038.97             0               
     8 r.12                 -1979.94      -1995.66               
     9 r.13                  38.9674             0               
    10 r.14                  2.98118      -1969.54               
    11 r.15                  2038.97             0               
    12 r.16                 -1961.03      -1981.09               
    13 r.17                  2038.97             0               
    14 r.18                 -1977.91      -1988.02               
    15 r.19                  38.9674             0               
    16 r.20                  15.7192      -1993.33               
    17 r.21                  2038.97             0               
    18 r.22                 -1999.12      -1999.12               
    19 r.23                  38.9674             0               
    20 r.24                 0.877444      -1997.93               
    21 r.25                        1             1             = 
    22 r.26                        1             1             = 
    23 r.27                        1             1             = 
    24 r.28                        1             1             = 
    25 r.29                        1             1             = 
    26 r.30                  1971.14        7.1286               
    27 r.31                 -1971.14      -1983.12               
    28 r.32                  11.0115        4.3382               
    29 r.33                 -11.0115      -1988.52               
    30 r.34                  1964.01       30.4597               
    31 r.35                 -1964.01      -1983.12               
    32 r.36                  29.9215         18.91               
    33 r.37                 -29.9215      -1988.52               
    34 r.38                  1983.12       11.9809               
    35 r.39                 -1983.12      -1983.12               
    36 r.40                   6.6733        6.6733               
    37 r.41                  -6.6733      -1988.52               
    38 r.42                 -1961.91       -1975.7               
    39 r.43                  8.16844      -1973.67               
    40 r.44                 -1961.91       -1975.7               
    41 r.45                  8.16844      -1973.67               
    42 r.46                  28.8576       16.8767               
    43 r.47                 -28.8576      -1992.87               
    44 r.48                  1988.99       11.4835               
    45 r.49                 -1988.99      -1995.66               
    46 r.50                  1992.87       30.4597               
    47 r.51                 -1992.87      -1992.87               
    48 r.52                    18.91         18.91               
    49 r.53                   -18.91      -1995.66               
    50 r.54                  11.9809       11.9809               
    51 r.55                 -11.9809      -1992.87               
    52 r.56                  1995.66        6.6733               
    53 r.57                 -1995.66      -1995.66               
    54 r.58                  9.23234      -1985.45               
    55 r.59                 -1980.82      -1980.82               
    56 r.60                  9.23234      -1985.45               
    57 r.61                 -1980.82      -1980.82               
    58 r.62                  35.9862       16.8767               
    59 r.63                 -35.9862      -1969.54               
    60 r.64                  1970.08       11.4835               
    61 r.65                 -1970.08      -1981.09               
    62 r.66                   7.1286        7.1286               
    63 r.67                  -7.1286      -1969.54               
    64 r.68                  1981.09        4.3382               
    65 r.69                 -1981.09      -1981.09               
    66 r.70                  19.1095       11.9809               
    67 r.71                 -19.1095      -1969.54               
    68 r.72                  1976.75        6.6733               
    69 r.73                 -1976.75      -1981.09               
    70 r.74                  2.10374      -1962.12               
    71 r.75                 -1961.91      -1966.25               
    72 r.76                  2.10374      -1962.12               
    73 r.77                 -1961.91      -1966.25               
    74 r.78                  16.8767       16.8767               
    75 r.79                 -16.8767      -1988.02               
    76 r.80                  1993.33       11.4835               
    77 r.81                 -1993.33      -1993.33               
    78 r.82                  1988.02        7.1286               
    79 r.83                 -1988.02      -1988.02               
    80 r.84                   4.3382        4.3382               
    81 r.85                  -4.3382      -1993.33               
    82 r.86                  1980.89       30.4597               
    83 r.87                 -1980.89      -1988.02               
    84 r.88                  23.2482         18.91               
    85 r.89                 -23.2482      -1993.33               
    86 r.90                 -1978.79       -1980.6               
    87 r.91                  14.8417      -1978.48               
    88 r.92                 -1978.79       -1980.6               
    89 r.93                  14.8417      -1978.48               
    90 r.94                 -1961.91       -1975.7               
    91 r.95                  8.16844      -1973.67               
    92 r.96                 -1961.91       -1975.7               
    93 r.97                  8.16844      -1973.67               
    94 r.98                  9.23234      -1985.45               
    95 r.99                 -1980.82      -1980.82               
    96 r.100                 9.23234      -1985.45               
    97 r.101                -1980.82      -1980.82               
    98 r.102                 2.10374      -1962.12               
    99 r.103                -1961.91      -1966.25               
   100 r.104                 2.10374      -1962.12               
   101 r.105                -1961.91      -1966.25               
   102 r.106                -1978.79       -1980.6               
   103 r.107                 14.8417      -1978.48               
   104 r.108                -1978.79       -1980.6               
   105 r.109                 14.8417      -1978.48               

   No. Column name       Activity     Lower bound   Upper bound
------ ------------    ------------- ------------- -------------
     1 tt                    38.9674             0               
     2 s_1_1        *              1             0             1 
     3 t_1_1                       0             0               
     4 s_2_1        *              0             0             1 
     5 t_2_1                 29.9215             0               
     6 s_1_2        *              0             0             1 
     7 t_1_2                 28.8576             0               
     8 s_2_2        *              1             0             1 
     9 t_2_2                   18.91             0               
    10 s_1_3        *              0             0             1 
    11 t_1_3                 35.9862             0               
    12 s_2_3        *              1             0             1 
    13 t_2_3                       0             0               
    14 s_1_4        *              1             0             1 
    15 t_1_4                 16.8767             0               
    16 s_2_4        *              0             0             1 
    17 t_2_4                 23.2482             0               
    18 s_1_5        *              1             0             1 
    19 t_1_5                 38.0899             0               
    20 s_2_5        *              0             0             1 
    21 t_2_5                 38.0899             0               
    22 u_1_1_2      *              1             0             1 
    23 u_2_1_2      *              0             0             1 
    24 u_1_1_3      *              1             0             1 
    25 u_2_1_3      *              0             0             1 
    26 u_1_1_4      *              1             0             1 
    27 u_2_1_4      *              0             0             1 
    28 u_1_2_1      *              0             0             1 
    29 u_2_2_1      *              1             0             1 
    30 u_1_2_3      *              1             0             1 
    31 u_2_2_3      *              0             0             1 
    32 u_1_2_4      *              0             0             1 
    33 u_2_2_4      *              1             0             1 
    34 u_1_3_1      *              0             0             1 
    35 u_2_3_1      *              1             0             1 
    36 u_1_3_2      *              0             0             1 
    37 u_2_3_2      *              1             0             1 
    38 u_1_3_4      *              0             0             1 
    39 u_2_3_4      *              1             0             1 
    40 u_1_4_1      *              0             0             1 
    41 u_2_4_1      *              1             0             1 
    42 u_1_4_2      *              1             0             1 
    43 u_2_4_2      *              0             0             1 
    44 u_1_4_3      *              1             0             1 
    45 u_2_4_3      *              0             0             1 

Integer feasibility conditions:

KKT.PE: max.abs.err = 2.27e-13 on row 44
        max.rel.err = 5.63e-17 on row 44
        High quality

KKT.PB: max.abs.err = 8.44e-14 on row 36
        max.rel.err = 1.10e-14 on row 36
        High quality

End of output
